(declare-fun e () String)
(declare-fun c () String)
(declare-fun g () String)
(declare-fun b () String)
(declare-fun d () String)
(declare-fun h () String)
(assert (= (str.++ e "ceh" g "g") (str.++ "h" h)))
(assert (= (str.++ b "d" c) "aac"))
(assert (= (str.++ "c" d g) (str.++ "dgb" h)))

(check-sat)
